12
101110111011
111111111111111111111111111111111111111111111111111111111111111111111111111111111111
111111111111111111111111111111111111111111111111111111111111111111111111111111111111
011111110111111101111111011111110110111111101111111011111110111111101101111111011111
111111111111111111111111111111111111111111111111111111111111111111111111111111111111
111111111111111111111111111111111111111111111111111111111111111111111111111111111111
110111111101111111011011111110111111101111111011111110110111111101111111011111110111
111111111111111111111111111111111111111111111111111111111111111111111111111111111111
111101101111111011111110111111101111111011011111110111111101111111011111110110111111
111111111111111111111111111111111111111111111111111111111111111111111111111111111111
101111111011111110111111101101111111011111110111111101111111011011111110111111101111
111111111111111111111111111111111111111111111111111111111111111111111111111111111111
111111111111111111111111111111111111111111111111111111111111111111111111111111111111
011101111111
111011001110
110111010110
011101011110
011101011110
111111011100
011101011110
110111010110
111111011110
110111010110
011101111111
111111011100
110101101100
111111111111
011001010101
110101101100
010011000110
111111111111
110101101100
011001010101
110101101100
111111111111
010011000110
011001010101
